-26 -28 0
d -26 -22 -28 0
-24 -27 0
d -24 -3 -27 0
-23 -22 26 0
-27 26 0
24 -28 0
-28 0
-23 -24 0
-24 0
22 0
4 0
-20 0
-2 0
-6 0
26 0
21 0
-19 0
-7 0
-23 0
-11 0
8 0
18 0
12 0
13 0
9 0
17 0
-10 0
-3 0
-16 0
-27 0
-14 0
-15 0
0
